;; Preprocessed for Astral solver
(set-info :status sat)
;; variables
(declare-const x0 Loc)
(declare-const x1 Loc)
(declare-const x2 Loc)
(declare-const x3 Loc)
(declare-const x4 Loc)
(declare-const x5 Loc)
(declare-const x6 Loc)
(declare-const x7 Loc)
(declare-const x8 Loc)
(declare-const x9 Loc)
(declare-const x10 Loc)
(declare-const x11 Loc)
(declare-const x12 Loc)
(declare-const x13 Loc)
(declare-const x14 Loc)
(declare-const x15 Loc)
(declare-const x16 Loc)
(declare-const x17 Loc)
(declare-const x18 Loc)
(declare-const x19 Loc)
(declare-const x20 Loc)
(declare-const x21 Loc)
(declare-const x22 Loc)

(assert 
		(sep 
			(= nil nil)
			(distinct x6 x7)
			(distinct x6 x15)
			(distinct x11 x12)
			(distinct x11 x14)
			(distinct x11 x15)
			(distinct x3 x4)
			(distinct x3 x18)
			(distinct x3 x16)
			(distinct x3 x17)
			(distinct x7 x9)
			(distinct x9 x11)
			(distinct x9 x18)
			(distinct x9 x10)
			(distinct x2 x11)
			(distinct x2 x7)
			(distinct x2 x16)
			(distinct x2 x5)
			(distinct x15 x16)
			(distinct x8 x18)
			(distinct x8 x17)
			(distinct x1 x8)
			(distinct x1 x3)
			(distinct x1 x7)
			(distinct x1 x17)
			(distinct x1 x5)
			(distinct x1 x14)
			(distinct x4 x9)
			(distinct x4 x12)
			(distinct x13 x15)
			(distinct x10 x12)
			(distinct x16 x17)
			(distinct x5 x16)
			(distinct x5 x10)
		(sep 
			(ls x13 x15 )
			(ls x16 x11 )
			(ls x8 x10 )
			(ls x14 x9 )
			(ls x15 x3 )
			(ls x9 x6 )
		)

		)

)

(check-sat)
